networks/zoo_132_2574/zoo_132_2574-lower.txt
Number of groups: 64
Flow 1: {1 4 0} {4 2 0} {2 68 0} 
Flow 2: {4 70 0} 
Flow 3: {1 7 0} {7 5 0} {5 71 0} 
Flow 4: {4 6 0} {6 72 0} 
Flow 5: {7 73 0} 
Flow 6: {2 8 0} {8 74 0} 
Flow 7: {2 46 0} {46 10 0} {10 76 0} 
Flow 8: {4 11 0} {11 77 0} 
Flow 9: {1 12 0} {12 78 0} 
Flow 10: {2 20 0} {20 13 0} {13 79 0} 
Flow 11: {20 14 0} {14 80 0} 
Flow 12: {20 15 0} {15 81 0} 
Flow 13: {20 16 0} {16 82 0} 
Flow 14: {2 19 0} {19 17 0} {17 83 0} 
Flow 15: {17 18 0} {18 84 0} 
Flow 16: {19 85 0} 
Flow 17: {20 86 0} 
Flow 18: {2 21 0} {21 87 0} 
Flow 19: {5 23 0} {23 89 0} 
Flow 20: {5 24 0} {24 90 0} 
Flow 21: {46 25 0} {25 91 0} 
Flow 22: {46 27 0} {27 93 0} 
Flow 23: {46 28 0} {28 94 0} 
Flow 24: {20 29 0} {29 95 0} 
Flow 25: {20 30 0} {30 96 0} 
Flow 26: {20 31 0} {31 97 0} 
Flow 27: {46 26 0} {26 32 0} {32 98 0} 
Flow 28: {26 33 0} {33 99 0} 
Flow 29: {26 34 0} {34 100 0} 
Flow 30: {25 35 0} {35 101 0} 
Flow 31: {46 36 0} {36 102 0} 
Flow 32: {17 39 0} {39 105 0} 
Flow 33: {21 42 0} {42 108 0} 
Flow 34: {21 43 0} {43 109 0} 
Flow 35: {20 44 0} {44 110 0} 
Flow 36: {21 45 0} {45 111 0} 
Flow 37: {46 112 0} 
Flow 38: {7 47 0} {47 113 0} 
Flow 39: {11 48 0} {48 114 0} 
Flow 40: {6 50 0} {50 116 0} 
Flow 41: {1 51 0} {51 117 0} 
Flow 42: {7 52 0} {52 118 0} 
Flow 43: {7 53 0} {53 119 0} 
Flow 44: {11 55 0} {55 121 0} 
Flow 45: {4 62 0} {62 58 0} {58 124 0} 
Flow 46: {7 61 0} {61 60 0} {60 126 0} 
Flow 47: {61 127 0} 
Flow 48: {62 128 0} 
Flow 49: {61 64 0} {64 130 0} 
Flow 50: {60 65 0} {65 131 0} 
Flow 51: {60 66 0} {66 132 0} 
Flow 52: {4 1 0} {1 67 0} 
Flow 52: {2 4 0} Flow 54: {2 7 0} Flow 70: {2 22 0} {22 88 0} 
Flow 84: {19 38 0} {38 104 0} 
Flow 86: {19 41 0} {41 107 0} 
Flow 94: {4 49 0} {49 115 0} 
Flow 100: {2 62 0} Flow 107: {3 62 0} {62 4 0} Flow 108: {62 2 0} Flow 148: {62 59 0} {59 60 0} Flow 149: {62 61 0} Flow 155: {62 3 0} {3 69 0} 
Flow 160: {46 9 0} {9 75 0} 
Flow 177: {26 92 0} 
Flow 190: {19 40 0} {40 106 0} 
Flow 205: {61 56 0} {56 122 0} 
Flow 207: {59 125 0} 
Flow 211: {46 63 0} {63 129 0} 
Flow 215: {5 7 0} {7 1 0} Flow 216: {7 2 0} Flow 221: {5 8 0} Flow 223: {7 11 0} Flow 272: {6 4 0} Flow 322: {46 37 0} {37 103 0} 
Flow 350: {8 2 0} Flow 353: {8 5 0} Flow 380: {9 46 0} {46 2 0} Flow 387: {46 20 0} Flow 389: {26 17 0} Flow 404: {17 60 0} Flow 408: {10 46 0} Flow 451: {11 4 0} Flow 453: {11 7 0} Flow 459: {12 1 0} Flow 502: {13 20 0} {20 2 0} Flow 509: {20 46 0} Flow 515: {20 26 0} Flow 519: {20 21 0} Flow 553: {14 20 0} Flow 578: {15 20 0} Flow 620: {16 20 0} Flow 671: {17 19 0} {19 2 0} Flow 678: {17 26 0} {26 46 0} Flow 681: {26 20 0} Flow 692: {26 25 0} Flow 721: {60 61 0} Flow 726: {18 17 0} Flow 871: {21 2 0} Flow 881: {21 20 0} Flow 923: {22 2 0} Flow 951: {23 5 0} Flow 954: {24 5 0} Flow 962: {25 46 0} Flow 972: {25 26 0} Flow 1063: {27 46 0} Flow 1106: {28 46 0} Flow 1157: {29 20 0} Flow 1208: {30 20 0} Flow 1255: {31 20 0} Flow 1286: {32 26 0} Flow 1335: {33 26 0} Flow 1374: {34 26 0} Flow 1419: {35 25 0} Flow 1467: {36 46 0} Flow 1480: {37 46 0} Flow 1529: {38 19 0} Flow 1579: {39 17 0} Flow 1592: {40 19 0} Flow 1642: {41 19 0} Flow 1675: {42 21 0} Flow 1724: {43 21 0} Flow 1766: {44 20 0} Flow 1815: {45 21 0} Flow 1911: {47 7 0} Flow 1956: {48 11 0} Flow 1968: {49 4 0} Flow 1981: {50 6 0} Flow 2020: {51 1 0} Flow 2060: {52 7 0} Flow 2072: {53 7 0} Flow 2105: {54 11 0} Flow 2145: {55 11 0} Flow 2173: {56 61 0} {61 7 0} Flow 2175: {61 62 0} Flow 2183: {60 17 0} Flow 2206: {57 60 0} Flow 2208: {60 59 0} {59 62 0} Flow 2257: {58 62 0} Flow 2464: {63 46 0} Flow 2507: {64 61 0} Flow 2551: {65 60 0} Flow 2560: {66 60 0} Time taken running everything: 0 seconds
