networks/zoo_132_2574/zoo_132_2574-lower.sol
<?xml version = "1.0" encoding="UTF-8" standalone="yes"?>
<CPLEXSolution version="1.2">
 <header
   problemName="networks/zoo_132_2574/zoo_132_2574-lower.lp"
   solutionName="incumbent"
   solutionIndex="-1"
   objectiveValue="64"
   solutionTypeValue="3"
   solutionTypeString="primal"
   solutionStatusValue="101"
   solutionStatusString="integer optimal solution"
   solutionMethodString="mip"
   primalFeasible="1"
   dualFeasible="1"
   MIPNodes="0"
   MIPIterations="0"
   writeLevel="3"/>
 <quality
   epInt="1.0000000000000001e-05"
   epRHS="9.9999999999999995e-07"
   maxIntInfeas="0"
   maxPrimalInfeas="0"
   maxX="1"
   maxSlack="1"/>
 <variables>
  <variable name="Y(1,2)" index="1" value="1"/>
  <variable name="Y(2,4)" index="133" value="1"/>
  <variable name="Y(3,5)" index="264" value="1"/>
  <variable name="Y(4,6)" index="395" value="1"/>
  <variable name="Y(5,7)" index="526" value="1"/>
  <variable name="Y(6,8)" index="657" value="1"/>
  <variable name="Y(7,10)" index="789" value="1"/>
  <variable name="Y(8,11)" index="920" value="1"/>
  <variable name="Y(9,12)" index="1051" value="1"/>
  <variable name="Y(10,13)" index="1182" value="1"/>
  <variable name="Y(11,14)" index="1313" value="1"/>
  <variable name="Y(12,15)" index="1444" value="1"/>
  <variable name="Y(13,16)" index="1575" value="1"/>
  <variable name="Y(14,17)" index="1706" value="1"/>
  <variable name="Y(15,18)" index="1837" value="1"/>
  <variable name="Y(16,19)" index="1968" value="1"/>
  <variable name="Y(17,20)" index="2099" value="1"/>
  <variable name="Y(18,21)" index="2230" value="1"/>
  <variable name="Y(19,23)" index="2362" value="1"/>
  <variable name="Y(20,24)" index="2493" value="1"/>
  <variable name="Y(21,25)" index="2624" value="1"/>
  <variable name="Y(22,27)" index="2756" value="1"/>
  <variable name="Y(23,28)" index="2887" value="1"/>
  <variable name="Y(24,29)" index="3018" value="1"/>
  <variable name="Y(25,30)" index="3149" value="1"/>
  <variable name="Y(26,31)" index="3280" value="1"/>
  <variable name="Y(27,32)" index="3411" value="1"/>
  <variable name="Y(28,33)" index="3542" value="1"/>
  <variable name="Y(29,34)" index="3673" value="1"/>
  <variable name="Y(30,35)" index="3804" value="1"/>
  <variable name="Y(31,36)" index="3935" value="1"/>
  <variable name="Y(32,39)" index="4068" value="1"/>
  <variable name="Y(33,42)" index="4201" value="1"/>
  <variable name="Y(34,43)" index="4332" value="1"/>
  <variable name="Y(35,44)" index="4463" value="1"/>
  <variable name="Y(36,45)" index="4594" value="1"/>
  <variable name="Y(37,46)" index="4725" value="1"/>
  <variable name="Y(38,47)" index="4856" value="1"/>
  <variable name="Y(39,48)" index="4987" value="1"/>
  <variable name="Y(40,50)" index="5119" value="1"/>
  <variable name="Y(41,51)" index="5250" value="1"/>
  <variable name="Y(42,52)" index="5381" value="1"/>
  <variable name="Y(43,53)" index="5512" value="1"/>
  <variable name="Y(44,55)" index="5644" value="1"/>
  <variable name="Y(45,58)" index="5777" value="1"/>
  <variable name="Y(46,60)" index="5909" value="1"/>
  <variable name="Y(47,61)" index="6040" value="1"/>
  <variable name="Y(48,62)" index="6171" value="1"/>
  <variable name="Y(49,64)" index="6303" value="1"/>
  <variable name="Y(50,65)" index="6434" value="1"/>
  <variable name="Y(51,66)" index="6565" value="1"/>
  <variable name="Y(52,1)" index="6630" value="1"/>
  <variable name="Y(70,22)" index="8991" value="1"/>
  <variable name="Y(84,38)" index="10827" value="1"/>
  <variable name="Y(86,41)" index="11090" value="1"/>
  <variable name="Y(94,49)" index="12138" value="1"/>
  <variable name="Y(155,3)" index="20022" value="1"/>
  <variable name="Y(160,9)" index="20678" value="1"/>
  <variable name="Y(177,26)" index="22905" value="1"/>
  <variable name="Y(190,40)" index="24609" value="1"/>
  <variable name="Y(205,56)" index="26575" value="1"/>
  <variable name="Y(207,59)" index="26838" value="1"/>
  <variable name="Y(211,63)" index="27362" value="1"/>
  <variable name="Y(322,37)" index="41766" value="1"/>
  <variable name="X(1,4,1)" index="334620" value="1"/>
  <variable name="X(1,7,3)" index="337196" value="1"/>
  <variable name="X(1,12,9)" index="339776" value="1"/>
  <variable name="X(1,51,41)" index="342382" value="1"/>
  <variable name="X(1,67,52)" index="344967" value="1"/>
  <variable name="X(2,4,52)" index="347541" value="1"/>
  <variable name="X(2,7,54)" index="350117" value="1"/>
  <variable name="X(2,8,6)" index="352643" value="1"/>
  <variable name="X(2,19,14)" index="355225" value="1"/>
  <variable name="X(2,20,10)" index="357795" value="1"/>
  <variable name="X(2,21,18)" index="360377" value="1"/>
  <variable name="X(2,22,70)" index="363003" value="1"/>
  <variable name="X(2,46,7)" index="365514" value="1"/>
  <variable name="X(2,62,100)" index="368181" value="1"/>
  <variable name="X(2,68,1)" index="370656" value="1"/>
  <variable name="X(3,62,107)" index="373336" value="1"/>
  <variable name="X(3,69,155)" index="375958" value="1"/>
  <variable name="X(4,1,52)" index="378429" value="1"/>
  <variable name="X(4,2,1)" index="380952" value="1"/>
  <variable name="X(4,6,4)" index="383529" value="1"/>
  <variable name="X(4,11,8)" index="386107" value="1"/>
  <variable name="X(4,49,94)" index="388767" value="1"/>
  <variable name="X(4,62,45)" index="391292" value="1"/>
  <variable name="X(4,70,2)" index="393823" value="1"/>
  <variable name="X(5,7,215)" index="396610" value="1"/>
  <variable name="X(5,8,221)" index="399190" value="1"/>
  <variable name="X(5,23,19)" index="401562" value="1"/>
  <variable name="X(5,24,20)" index="404137" value="1"/>
  <variable name="X(5,71,3)" index="406694" value="1"/>
  <variable name="X(6,4,272)" index="409537" value="1"/>
  <variable name="X(6,50,40)" index="411879" value="1"/>
  <variable name="X(6,72,4)" index="414417" value="1"/>
  <variable name="X(7,1,215)" index="417202" value="1"/>
  <variable name="X(7,2,216)" index="419777" value="1"/>
  <variable name="X(7,5,3)" index="422138" value="1"/>
  <variable name="X(7,11,223)" index="424932" value="1"/>
  <variable name="X(7,47,38)" index="427321" value="1"/>
  <variable name="X(7,52,42)" index="429899" value="1"/>
  <variable name="X(7,53,43)" index="432474" value="1"/>
  <variable name="X(7,61,46)" index="435051" value="1"/>
  <variable name="X(7,73,5)" index="437584" value="1"/>
  <variable name="X(8,2,350)" index="440503" value="1"/>
  <variable name="X(8,5,353)" index="443080" value="1"/>
  <variable name="X(8,74,6)" index="445307" value="1"/>
  <variable name="X(9,46,380)" index="448255" value="1"/>
  <variable name="X(9,75,160)" index="450609" value="1"/>
  <variable name="X(10,46,408)" index="453431" value="1"/>
  <variable name="X(10,76,7)" index="455604" value="1"/>
  <variable name="X(11,4,451)" index="458622" value="1"/>
  <variable name="X(11,7,453)" index="461198" value="1"/>
  <variable name="X(11,48,39)" index="463358" value="1"/>
  <variable name="X(11,55,44)" index="465937" value="1"/>
  <variable name="X(11,77,8)" index="468475" value="1"/>
  <variable name="X(12,1,459)" index="471500" value="1"/>
  <variable name="X(12,78,9)" index="473624" value="1"/>
  <variable name="X(13,20,502)" index="476691" value="1"/>
  <variable name="X(13,79,10)" index="478773" value="1"/>
  <variable name="X(14,20,553)" index="481890" value="1"/>
  <variable name="X(14,80,11)" index="483922" value="1"/>
  <variable name="X(15,20,578)" index="487063" value="1"/>
  <variable name="X(15,81,12)" index="489071" value="1"/>
  <variable name="X(16,20,620)" index="492253" value="1"/>
  <variable name="X(16,82,13)" index="494220" value="1"/>
  <variable name="X(17,18,15)" index="496796" value="1"/>
  <variable name="X(17,19,671)" index="500026" value="1"/>
  <variable name="X(17,26,678)" index="502607" value="1"/>
  <variable name="X(17,39,32)" index="504535" value="1"/>
  <variable name="X(17,60,404)" index="507481" value="1"/>
  <variable name="X(17,83,14)" index="509665" value="1"/>
  <variable name="X(18,17,726)" index="512951" value="1"/>
  <variable name="X(18,84,15)" index="514814" value="1"/>
  <variable name="X(19,2,671)" index="518044" value="1"/>
  <variable name="X(19,17,14)" index="519961" value="1"/>
  <variable name="X(19,38,84)" index="522605" value="1"/>
  <variable name="X(19,40,190)" index="525285" value="1"/>
  <variable name="X(19,41,86)" index="527755" value="1"/>
  <variable name="X(19,85,16)" index="530259" value="1"/>
  <variable name="X(20,2,502)" index="533319" value="1"/>
  <variable name="X(20,13,10)" index="535401" value="1"/>
  <variable name="X(20,14,11)" index="537976" value="1"/>
  <variable name="X(20,15,12)" index="540551" value="1"/>
  <variable name="X(20,16,13)" index="543126" value="1"/>
  <variable name="X(20,21,519)" index="546206" value="1"/>
  <variable name="X(20,26,515)" index="548776" value="1"/>
  <variable name="X(20,29,24)" index="550859" value="1"/>
  <variable name="X(20,30,25)" index="553434" value="1"/>
  <variable name="X(20,31,26)" index="556009" value="1"/>
  <variable name="X(20,44,35)" index="558592" value="1"/>
  <variable name="X(20,46,509)" index="561640" value="1"/>
  <variable name="X(20,86,17)" index="563722" value="1"/>
  <variable name="X(21,2,871)" index="567150" value="1"/>
  <variable name="X(21,20,881)" index="569734" value="1"/>
  <variable name="X(21,42,33)" index="571460" value="1"/>
  <variable name="X(21,43,34)" index="574035" value="1"/>
  <variable name="X(21,45,36)" index="576611" value="1"/>
  <variable name="X(21,87,18)" index="579167" value="1"/>
  <variable name="X(22,2,923)" index="582646" value="1"/>
  <variable name="X(22,88,70)" index="584367" value="1"/>
  <variable name="X(23,5,951)" index="587822" value="1"/>
  <variable name="X(23,89,19)" index="589464" value="1"/>
  <variable name="X(24,5,954)" index="592973" value="1"/>
  <variable name="X(24,90,20)" index="594613" value="1"/>
  <variable name="X(25,26,972)" index="598139" value="1"/>
  <variable name="X(25,35,30)" index="599771" value="1"/>
  <variable name="X(25,46,962)" index="603277" value="1"/>
  <variable name="X(25,91,21)" index="604910" value="1"/>
  <variable name="X(26,17,389)" index="607852" value="1"/>
  <variable name="X(26,20,681)" index="610718" value="1"/>
  <variable name="X(26,25,692)" index="613303" value="1"/>
  <variable name="X(26,32,27)" index="615212" value="1"/>
  <variable name="X(26,33,28)" index="617787" value="1"/>
  <variable name="X(26,34,29)" index="620362" value="1"/>
  <variable name="X(26,46,678)" index="623585" value="1"/>
  <variable name="X(26,92,177)" index="625658" value="1"/>
  <variable name="X(27,46,1063)" index="629118" value="1"/>
  <variable name="X(27,93,22)" index="630651" value="1"/>
  <variable name="X(28,46,1106)" index="634309" value="1"/>
  <variable name="X(28,94,23)" index="635800" value="1"/>
  <variable name="X(29,20,1157)" index="639508" value="1"/>
  <variable name="X(29,95,24)" index="640949" value="1"/>
  <variable name="X(30,20,1208)" index="644707" value="1"/>
  <variable name="X(30,96,25)" index="646098" value="1"/>
  <variable name="X(31,20,1255)" index="649902" value="1"/>
  <variable name="X(31,97,26)" index="651247" value="1"/>
  <variable name="X(32,26,1286)" index="655081" value="1"/>
  <variable name="X(32,98,27)" index="656396" value="1"/>
  <variable name="X(33,26,1335)" index="660278" value="1"/>
  <variable name="X(33,99,28)" index="661545" value="1"/>
  <variable name="X(34,26,1374)" index="665465" value="1"/>
  <variable name="X(34,100,29)" index="666694" value="1"/>
  <variable name="X(35,25,1419)" index="670658" value="1"/>
  <variable name="X(35,101,30)" index="671843" value="1"/>
  <variable name="X(36,46,1467)" index="675854" value="1"/>
  <variable name="X(36,102,31)" index="676992" value="1"/>
  <variable name="X(37,46,1480)" index="681015" value="1"/>
  <variable name="X(37,103,322)" index="682431" value="1"/>
  <variable name="X(38,19,1529)" index="686212" value="1"/>
  <variable name="X(38,104,84)" index="687341" value="1"/>
  <variable name="X(39,17,1579)" index="691410" value="1"/>
  <variable name="X(39,105,32)" index="692437" value="1"/>
  <variable name="X(40,19,1592)" index="696571" value="1"/>
  <variable name="X(40,106,190)" index="697743" value="1"/>
  <variable name="X(41,19,1642)" index="701769" value="1"/>
  <variable name="X(41,107,86)" index="702787" value="1"/>
  <variable name="X(42,21,1675)" index="706950" value="1"/>
  <variable name="X(42,108,33)" index="707882" value="1"/>
  <variable name="X(43,21,1724)" index="712147" value="1"/>
  <variable name="X(43,109,34)" index="713031" value="1"/>
  <variable name="X(44,20,1766)" index="717337" value="1"/>
  <variable name="X(44,110,35)" index="718180" value="1"/>
  <variable name="X(45,21,1815)" index="722534" value="1"/>
  <variable name="X(45,111,36)" index="723329" value="1"/>
  <variable name="X(46,2,380)" index="726247" value="1"/>
  <variable name="X(46,9,160)" index="728601" value="1"/>
  <variable name="X(46,10,7)" index="731022" value="1"/>
  <variable name="X(46,20,387)" index="733976" value="1"/>
  <variable name="X(46,25,21)" index="736184" value="1"/>
  <variable name="X(46,26,27)" index="738764" value="1"/>
  <variable name="X(46,27,22)" index="741333" value="1"/>
  <variable name="X(46,28,23)" index="743908" value="1"/>
  <variable name="X(46,36,31)" index="746490" value="1"/>
  <variable name="X(46,37,322)" index="749355" value="1"/>
  <variable name="X(46,63,211)" index="751818" value="1"/>
  <variable name="X(46,112,37)" index="754218" value="1"/>
  <variable name="X(47,7,1911)" index="758666" value="1"/>
  <variable name="X(47,113,38)" index="759367" value="1"/>
  <variable name="X(48,11,1956)" index="763859" value="1"/>
  <variable name="X(48,114,39)" index="764516" value="1"/>
  <variable name="X(49,4,1968)" index="769019" value="1"/>
  <variable name="X(49,115,94)" index="769719" value="1"/>
  <variable name="X(50,6,1981)" index="774180" value="1"/>
  <variable name="X(50,116,40)" index="774813" value="1"/>
  <variable name="X(51,1,2020)" index="779367" value="1"/>
  <variable name="X(51,117,41)" index="779962" value="1"/>
  <variable name="X(52,7,2060)" index="784555" value="1"/>
  <variable name="X(52,118,42)" index="785111" value="1"/>
  <variable name="X(53,7,2072)" index="789715" value="1"/>
  <variable name="X(53,119,43)" index="790260" value="1"/>
  <variable name="X(54,11,2105)" index="794896" value="1"/>
  <variable name="X(55,11,2145)" index="797510" value="1"/>
  <variable name="X(55,121,44)" index="797983" value="1"/>
  <variable name="X(56,61,2173)" index="802686" value="1"/>
  <variable name="X(56,122,205)" index="803292" value="1"/>
  <variable name="X(57,60,2206)" index="807867" value="1"/>
  <variable name="X(58,62,2257)" index="810492" value="1"/>
  <variable name="X(58,124,45)" index="810854" value="1"/>
  <variable name="X(59,60,148)" index="813531" value="1"/>
  <variable name="X(59,62,2208)" index="818165" value="1"/>
  <variable name="X(59,125,207)" index="818738" value="1"/>
  <variable name="X(60,17,2183)" index="823288" value="1"/>
  <variable name="X(60,59,2208)" index="825887" value="1"/>
  <variable name="X(60,61,721)" index="826974" value="1"/>
  <variable name="X(60,65,50)" index="828877" value="1"/>
  <variable name="X(60,66,51)" index="831452" value="1"/>
  <variable name="X(60,126,46)" index="834021" value="1"/>
  <variable name="X(61,7,2173)" index="838722" value="1"/>
  <variable name="X(61,56,205)" index="839328" value="1"/>
  <variable name="X(61,60,46)" index="841743" value="1"/>
  <variable name="X(61,62,2175)" index="846446" value="1"/>
  <variable name="X(61,64,49)" index="846894" value="1"/>
  <variable name="X(61,127,47)" index="849466" value="1"/>
  <variable name="X(62,2,108)" index="852101" value="1"/>
  <variable name="X(62,3,155)" index="854722" value="1"/>
  <variable name="X(62,4,107)" index="857248" value="1"/>
  <variable name="X(62,58,45)" index="859760" value="1"/>
  <variable name="X(62,59,148)" index="862437" value="1"/>
  <variable name="X(62,61,149)" index="865012" value="1"/>
  <variable name="X(62,128,48)" index="867485" value="1"/>
  <variable name="X(63,46,2464)" index="872475" value="1"/>
  <variable name="X(63,129,211)" index="872796" value="1"/>
  <variable name="X(64,61,2507)" index="877666" value="1"/>
  <variable name="X(64,130,49)" index="877782" value="1"/>
  <variable name="X(65,60,2551)" index="882858" value="1"/>
  <variable name="X(65,131,50)" index="882931" value="1"/>
  <variable name="X(66,60,2560)" index="888015" value="1"/>
  <variable name="X(66,132,51)" index="888080" value="1"/>
 </variables>
</CPLEXSolution>
